100 97264

 288 913
459 128
624 723
998 523
536 688
291 645
851 325
838 320
168 506
950 526
621 50
428 922
702 584
490 69
355 391
196 383
545 16
717 439
824 846
932 869
694 568
659 617
939 132
780 996
11 560
582 248
256 273
396 623
731 932
809 838
409 848
362 349
259 484
3 550
84 357
156 752
663 318
176 633
707 48
938 10
472 233
619 36
424 413
134 462
788 4
907 44
864 568
380 554
667 255
277 740
236 114
752 749
882 397
13 174
342 255
35 466
559 929
214 277
412 464
405 847
494 502
658 441
159 69
956 509
637 326
110 742
549 67
789 304
526 972
985 484
347 929
744 548
828 417
636 159
279 149
479 27
111 987
636 584
925 248
431 101
542 702
115 96
90 384
212 282
550 322
595 396
539 278
729 529
360 263
486 619
372 580
215 640
733 293
15 294
955 608
259 395
778 513
463 921
120 810
976 180
